0
Node Left Objective IInf Best_Integer Best_Bound ItCnt Gap
0 0 0.0000 4 0.0000 11
0+ 0 nan nan 2067.5201 0.0000 nan 100.00%
0+ 0 nan nan 33.3232 0.0000 nan 100.00%
0+ 0 nan nan 9.7846 0.0000 nan 100.00%
0 0 -1.00000e+75 0 9.7846 0.0000 11 100.00%
0 2 0.0000 4 9.7846 0.0000 11 100.00%
CPXPARAM_MIP_Cuts_Gomory-Disjunctive-MIRCut:Gomory 0
CPXPARAM_MIP_Cuts_Gomory-Disjunctive-MIRCut:Disjunctive 0
CPXPARAM_MIP_Cuts_Gomory-Disjunctive-MIRCut:MIRCut 0
1
Node Left Objective IInf Best_Integer Best_Bound ItCnt Gap
0 0 -0.0000 29 -0.0000 12
0+ 0 nan nan 3617.7218 -0.0000 nan 100.00%
0+ 0 nan nan 707.7725 -0.0000 nan 100.00%
0+ 0 nan nan 583.4617 -0.0000 nan 100.00%
0+ 0 nan nan 209.3225 -0.0000 nan 100.00%
0 2 -0.0000 29 209.3225 -0.0000 12 100.00%
CPXPARAM_MIP_Cuts_Gomory-Disjunctive-MIRCut:Gomory 0
CPXPARAM_MIP_Cuts_Gomory-Disjunctive-MIRCut:Disjunctive 0
CPXPARAM_MIP_Cuts_Gomory-Disjunctive-MIRCut:MIRCut 0
2
Node Left Objective IInf Best_Integer Best_Bound ItCnt Gap
0 0 -0.0000 4 -0.0000 11
0+ 0 nan nan 2868.2445 -0.0000 nan 100.00%
0+ 0 nan nan 70.7940 -0.0000 nan 100.00%
0+ 0 nan nan 14.3978 -0.0000 nan 100.00%
0 0 -1.00000e+75 0 14.3978 -0.0000 11 100.00%
0 2 -0.0000 4 14.3978 -0.0000 11 100.00%
CPXPARAM_MIP_Cuts_Gomory-Disjunctive-MIRCut:Gomory 0
CPXPARAM_MIP_Cuts_Gomory-Disjunctive-MIRCut:Disjunctive 0
CPXPARAM_MIP_Cuts_Gomory-Disjunctive-MIRCut:MIRCut 0
3
Node Left Objective IInf Best_Integer Best_Bound ItCnt Gap
0 0 -0.0000 29 -0.0000 12
0+ 0 nan nan 3319.7587 -0.0000 nan 100.00%
0+ 0 nan nan 707.7725 -0.0000 nan 100.00%
0+ 0 nan nan 614.8384 -0.0000 nan 100.00%
0+ 0 nan nan 117.9518 -0.0000 nan 100.00%
0 2 -0.0000 29 117.9518 -0.0000 12 100.00%
CPXPARAM_MIP_Cuts_Gomory-Disjunctive-MIRCut:Gomory 0
CPXPARAM_MIP_Cuts_Gomory-Disjunctive-MIRCut:Disjunctive 0
CPXPARAM_MIP_Cuts_Gomory-Disjunctive-MIRCut:MIRCut 0
4
Node Left Objective IInf Best_Integer Best_Bound ItCnt Gap
0 0 -0.0000 6 -0.0000 11
0+ 0 nan nan 4121.3564 -0.0000 nan 100.00%
0+ 0 nan nan 5.5054 -0.0000 nan 100.00%
0+ 0 nan nan 2.1208 -0.0000 nan 100.00%
0 2 -0.0000 6 2.1208 -0.0000 11 100.00%
CPXPARAM_MIP_Cuts_Gomory-Disjunctive-MIRCut:Gomory 0
CPXPARAM_MIP_Cuts_Gomory-Disjunctive-MIRCut:Disjunctive 0
CPXPARAM_MIP_Cuts_Gomory-Disjunctive-MIRCut:MIRCut 0
5
Node Left Objective IInf Best_Integer Best_Bound ItCnt Gap
0 0 -0.0000 29 -0.0000 11
0+ 0 nan nan 4499.9883 -0.0000 nan 100.00%
0+ 0 nan nan 804.5059 -0.0000 nan 100.00%
0+ 0 nan nan 208.5050 -0.0000 nan 100.00%
0 2 -0.0000 29 208.5050 -0.0000 11 100.00%
CPXPARAM_MIP_Cuts_Gomory-Disjunctive-MIRCut:Gomory 0
CPXPARAM_MIP_Cuts_Gomory-Disjunctive-MIRCut:Disjunctive 0
CPXPARAM_MIP_Cuts_Gomory-Disjunctive-MIRCut:MIRCut 0
6
Node Left Objective IInf Best_Integer Best_Bound ItCnt Gap
0 0 -0.0000 6 -0.0000 10
0+ 0 nan nan 4603.7983 -0.0000 nan 100.00%
0+ 0 nan nan 1.3304 -0.0000 nan 100.00%
0 2 -0.0000 6 1.3304 -0.0000 10 100.00%
CPXPARAM_MIP_Cuts_Gomory-Disjunctive-MIRCut:Gomory 0
CPXPARAM_MIP_Cuts_Gomory-Disjunctive-MIRCut:Disjunctive 0
CPXPARAM_MIP_Cuts_Gomory-Disjunctive-MIRCut:MIRCut 0
7
Node Left Objective IInf Best_Integer Best_Bound ItCnt Gap
0 0 -0.0000 29 -0.0000 12
0+ 0 nan nan 3085.6373 -0.0000 nan 100.00%
0+ 0 nan nan 804.5059 -0.0000 nan 100.00%
0+ 0 nan nan 96.1744 -0.0000 nan 100.00%
0 2 -0.0000 29 96.1744 -0.0000 12 100.00%
CPXPARAM_MIP_Cuts_Gomory-Disjunctive-MIRCut:Gomory 0
CPXPARAM_MIP_Cuts_Gomory-Disjunctive-MIRCut:Disjunctive 0
CPXPARAM_MIP_Cuts_Gomory-Disjunctive-MIRCut:MIRCut 0
8
Node Left Objective IInf Best_Integer Best_Bound ItCnt Gap
0 0 0.0000 3 0.0000 11
0+ 0 nan nan 2031.7563 0.0000 nan 100.00%
0+ 0 nan nan 75.7932 0.0000 nan 100.00%
0+ 0 nan nan 29.7244 0.0000 nan 100.00%
0 0 -1.00000e+75 0 29.7244 0.0000 11 100.00%
0 2 0.0000 3 29.7244 0.0000 11 100.00%
CPXPARAM_MIP_Cuts_Gomory-Disjunctive-MIRCut:Gomory 0
CPXPARAM_MIP_Cuts_Gomory-Disjunctive-MIRCut:Disjunctive 0
CPXPARAM_MIP_Cuts_Gomory-Disjunctive-MIRCut:MIRCut 0
9
Node Left Objective IInf Best_Integer Best_Bound ItCnt Gap
0 0 -0.0000 29 -0.0000 11
0+ 0 nan nan 4421.0942 -0.0000 nan 100.00%
0+ 0 nan nan 989.3200 -0.0000 nan 100.00%
0+ 0 nan nan 53.0894 -0.0000 nan 100.00%
0 2 -0.0000 29 53.0894 -0.0000 11 100.00%
CPXPARAM_MIP_Cuts_Gomory-Disjunctive-MIRCut:Gomory 0
CPXPARAM_MIP_Cuts_Gomory-Disjunctive-MIRCut:Disjunctive 0
CPXPARAM_MIP_Cuts_Gomory-Disjunctive-MIRCut:MIRCut 0
10
Node Left Objective IInf Best_Integer Best_Bound ItCnt Gap
0 0 0.0000 4 0.0000 11
0+ 0 nan nan 3013.8765 0.0000 nan 100.00%
0+ 0 nan nan 23.0068 0.0000 nan 100.00%
0+ 0 nan nan 0.0853 0.0000 nan 100.00%
0 2 0.0000 4 0.0853 0.0000 11 100.00%
CPXPARAM_MIP_Cuts_Gomory-Disjunctive-MIRCut:Gomory 0
CPXPARAM_MIP_Cuts_Gomory-Disjunctive-MIRCut:Disjunctive 0
CPXPARAM_MIP_Cuts_Gomory-Disjunctive-MIRCut:MIRCut 0
11
Node Left Objective IInf Best_Integer Best_Bound ItCnt Gap
0 0 -0.0000 29 -0.0000 11
0+ 0 nan nan 4371.2568 -0.0000 nan 100.00%
0+ 0 nan nan 989.3200 -0.0000 nan 100.00%
0+ 0 nan nan 53.6755 -0.0000 nan 100.00%
0 2 -0.0000 29 53.6755 -0.0000 11 100.00%
CPXPARAM_MIP_Cuts_Gomory-Disjunctive-MIRCut:Gomory 0
CPXPARAM_MIP_Cuts_Gomory-Disjunctive-MIRCut:Disjunctive 0
CPXPARAM_MIP_Cuts_Gomory-Disjunctive-MIRCut:MIRCut 0
12
Node Left Objective IInf Best_Integer Best_Bound ItCnt Gap
0 0 0.0000 5 0.0000 11
0+ 0 nan nan 4216.2192 0.0000 nan 100.00%
0+ 0 nan nan 21.2590 0.0000 nan 100.00%
0+ 0 nan nan 0.3512 0.0000 nan 100.00%
0 2 0.0000 5 0.3512 0.0000 11 100.00%
CPXPARAM_MIP_Cuts_Gomory-Disjunctive-MIRCut:Gomory 0
CPXPARAM_MIP_Cuts_Gomory-Disjunctive-MIRCut:Disjunctive 0
CPXPARAM_MIP_Cuts_Gomory-Disjunctive-MIRCut:MIRCut 0
13
Node Left Objective IInf Best_Integer Best_Bound ItCnt Gap
0 0 0.0000 29 0.0000 11
0+ 0 nan nan 4747.9551 0.0000 nan 100.00%
0+ 0 nan nan 805.3814 0.0000 nan 100.00%
0+ 0 nan nan 52.8642 0.0000 nan 100.00%
0 2 0.0000 29 52.8642 0.0000 11 100.00%
CPXPARAM_MIP_Cuts_Gomory-Disjunctive-MIRCut:Gomory 0
CPXPARAM_MIP_Cuts_Gomory-Disjunctive-MIRCut:Disjunctive 0
CPXPARAM_MIP_Cuts_Gomory-Disjunctive-MIRCut:MIRCut 0
14
Node Left Objective IInf Best_Integer Best_Bound ItCnt Gap
0 0 -0.0000 6 -0.0000 11
0+ 0 nan nan 7691.5411 -0.0000 nan 100.00%
0+ 0 nan nan 20.7299 -0.0000 nan 100.00%
0+ 0 nan nan 0.4208 -0.0000 nan 100.00%
0 2 -0.0000 6 0.4208 -0.0000 11 100.00%
CPXPARAM_MIP_Cuts_Gomory-Disjunctive-MIRCut:Gomory 0
CPXPARAM_MIP_Cuts_Gomory-Disjunctive-MIRCut:Disjunctive 0
CPXPARAM_MIP_Cuts_Gomory-Disjunctive-MIRCut:MIRCut 0
15
Node Left Objective IInf Best_Integer Best_Bound ItCnt Gap
0 0 -0.0000 29 -0.0000 12
0+ 0 nan nan 5150.8401 -0.0000 nan 100.00%
0+ 0 nan nan 805.3814 -0.0000 nan 100.00%
0+ 0 nan nan 52.8642 -0.0000 nan 100.00%
0 2 -0.0000 29 52.8642 -0.0000 12 100.00%
CPXPARAM_MIP_Cuts_Gomory-Disjunctive-MIRCut:Gomory 0
CPXPARAM_MIP_Cuts_Gomory-Disjunctive-MIRCut:Disjunctive 0
CPXPARAM_MIP_Cuts_Gomory-Disjunctive-MIRCut:MIRCut 0
16
Node Left Objective IInf Best_Integer Best_Bound ItCnt Gap
0 0 0.0000 7 0.0000 11
0+ 0 nan nan 8694.3484 0.0000 nan 100.00%
0+ 0 nan nan 0.0723 0.0000 nan 100.00%
0 2 0.0000 7 0.0723 0.0000 11 100.00%
CPXPARAM_MIP_Cuts_Gomory-Disjunctive-MIRCut:Gomory 0
CPXPARAM_MIP_Cuts_Gomory-Disjunctive-MIRCut:Disjunctive 0
CPXPARAM_MIP_Cuts_Gomory-Disjunctive-MIRCut:MIRCut 0
17
Node Left Objective IInf Best_Integer Best_Bound ItCnt Gap
0 0 -0.0000 10 -0.0000 10
0+ 0 nan nan 2478.0272 -0.0000 nan 100.00%
0+ 0 nan nan 67.0191 -0.0000 nan 100.00%
0+ 0 nan nan 22.1594 -0.0000 nan 100.00%
0 2 -0.0000 10 22.1594 -0.0000 10 100.00%
CPXPARAM_MIP_Cuts_Gomory-Disjunctive-MIRCut:Gomory 0
CPXPARAM_MIP_Cuts_Gomory-Disjunctive-MIRCut:Disjunctive 0
CPXPARAM_MIP_Cuts_Gomory-Disjunctive-MIRCut:MIRCut 0
18
Node Left Objective IInf Best_Integer Best_Bound ItCnt Gap
0 0 -0.0000 5 -0.0000 11
0+ 0 nan nan 3632.6154 -0.0000 nan 100.00%
0+ 0 nan nan 83.2341 -0.0000 nan 100.00%
0+ 0 nan nan 72.6331 -0.0000 nan 100.00%
0+ 0 nan nan 1.6985 -0.0000 nan 100.00%
0 0 -1.00000e+75 0 1.6985 -0.0000 11 100.00%
0 2 -0.0000 5 1.6985 -0.0000 11 100.00%
CPXPARAM_MIP_Cuts_Gomory-Disjunctive-MIRCut:Gomory 0
CPXPARAM_MIP_Cuts_Gomory-Disjunctive-MIRCut:Disjunctive 0
CPXPARAM_MIP_Cuts_Gomory-Disjunctive-MIRCut:MIRCut 0
19
Node Left Objective IInf Best_Integer Best_Bound ItCnt Gap
0 0 0.0000 29 0.0000 11
0+ 0 nan nan 4044.7954 0.0000 nan 100.00%
0+ 0 nan nan 876.8822 0.0000 nan 100.00%
0+ 0 nan nan 747.6273 0.0000 nan 100.00%
0+ 0 nan nan 21.4498 0.0000 nan 100.00%
0 2 -0.0000 29 21.4498 0.0000 11 100.00%
CPXPARAM_MIP_Cuts_Gomory-Disjunctive-MIRCut:Gomory 0
CPXPARAM_MIP_Cuts_Gomory-Disjunctive-MIRCut:Disjunctive 0
CPXPARAM_MIP_Cuts_Gomory-Disjunctive-MIRCut:MIRCut 0
20
Node Left Objective IInf Best_Integer Best_Bound ItCnt Gap
0 0 0.0000 8 0.0000 11
0+ 0 nan nan 6100.1972 0.0000 nan 100.00%
0+ 0 nan nan 1.4594 0.0000 nan 100.00%
0+ 0 nan nan 0.4481 0.0000 nan 100.00%
0 2 0.0000 8 0.4481 0.0000 11 100.00%
CPXPARAM_MIP_Cuts_Gomory-Disjunctive-MIRCut:Gomory 0
CPXPARAM_MIP_Cuts_Gomory-Disjunctive-MIRCut:Disjunctive 0
CPXPARAM_MIP_Cuts_Gomory-Disjunctive-MIRCut:MIRCut 0
21
Node Left Objective IInf Best_Integer Best_Bound ItCnt Gap
0 0 -0.0000 22 -0.0000 11
0+ 0 nan nan 3409.7121 -0.0000 nan 100.00%
0+ 0 nan nan 494.4981 -0.0000 nan 100.00%
0+ 0 nan nan 99.7975 -0.0000 nan 100.00%
0 2 -0.0000 22 99.7975 -0.0000 11 100.00%
CPXPARAM_MIP_Cuts_Gomory-Disjunctive-MIRCut:Gomory 0
CPXPARAM_MIP_Cuts_Gomory-Disjunctive-MIRCut:Disjunctive 0
CPXPARAM_MIP_Cuts_Gomory-Disjunctive-MIRCut:MIRCut 0
22
Node Left Objective IInf Best_Integer Best_Bound ItCnt Gap
0 0 0.0000 6 0.0000 11
0+ 0 nan nan 3525.6555 0.0000 nan 100.00%
0+ 0 nan nan 0.8313 0.0000 nan 100.00%
0 2 0.0000 6 0.8313 0.0000 11 100.00%
CPXPARAM_MIP_Cuts_Gomory-Disjunctive-MIRCut:Gomory 0
CPXPARAM_MIP_Cuts_Gomory-Disjunctive-MIRCut:Disjunctive 0
CPXPARAM_MIP_Cuts_Gomory-Disjunctive-MIRCut:MIRCut 0
23
Node Left Objective IInf Best_Integer Best_Bound ItCnt Gap
0 0 -0.0000 29 -0.0000 11
0+ 0 nan nan 4606.5142 -0.0000 nan 100.00%
0+ 0 nan nan 586.9854 -0.0000 nan 100.00%
0+ 0 nan nan 485.4806 -0.0000 nan 100.00%
0+ 0 nan nan 241.3252 -0.0000 nan 100.00%
0 2 -0.0000 29 241.3252 -0.0000 11 100.00%
CPXPARAM_MIP_Cuts_Gomory-Disjunctive-MIRCut:Gomory 0
CPXPARAM_MIP_Cuts_Gomory-Disjunctive-MIRCut:Disjunctive 0
CPXPARAM_MIP_Cuts_Gomory-Disjunctive-MIRCut:MIRCut 0
24
Node Left Objective IInf Best_Integer Best_Bound ItCnt Gap
0 0 -0.0000 3 -0.0000 10
0+ 0 nan nan 1592.4803 -0.0000 nan 100.00%
0+ 0 nan nan 48.5836 -0.0000 nan 100.00%
0+ 0 nan nan 3.7265 -0.0000 nan 100.00%
0 0 -1.00000e+75 0 3.7265 -0.0000 10 100.00%
0 2 -0.0000 3 3.7265 -0.0000 10 100.00%
CPXPARAM_MIP_Cuts_Gomory-Disjunctive-MIRCut:Gomory 0
CPXPARAM_MIP_Cuts_Gomory-Disjunctive-MIRCut:Disjunctive 0
CPXPARAM_MIP_Cuts_Gomory-Disjunctive-MIRCut:MIRCut 0
25
Node Left Objective IInf Best_Integer Best_Bound ItCnt Gap
0 0 0.0000 29 0.0000 12
0+ 0 nan nan 2774.9270 0.0000 nan 100.00%
0+ 0 nan nan 691.3327 0.0000 nan 100.00%
0+ 0 nan nan 26.5663 0.0000 nan 100.00%
0 2 0.0000 29 26.5663 0.0000 12 100.00%
CPXPARAM_MIP_Cuts_Gomory-Disjunctive-MIRCut:Gomory 0
CPXPARAM_MIP_Cuts_Gomory-Disjunctive-MIRCut:Disjunctive 0
CPXPARAM_MIP_Cuts_Gomory-Disjunctive-MIRCut:MIRCut 0
26
Node Left Objective IInf Best_Integer Best_Bound ItCnt Gap
0 0 -0.0000 3 -0.0000 11
0+ 0 nan nan 1557.6493 -0.0000 nan 100.00%
0+ 0 nan nan 116.8637 -0.0000 nan 100.00%
0 0 -0.0000 4 116.8637 MIRcuts:1 13 100.00%
0 0 -0.0000 5 116.8637 MIRcuts:2 15 100.00%
0+ 0 nan nan 0.7050 -0.0000 nan 100.00%
0 0 -1.00000e+75 0 0.7050 -0.0000 15 100.00%
0 2 -0.0000 5 0.7050 -0.0000 15 100.00%
CPXPARAM_MIP_Cuts_Gomory-Disjunctive-MIRCut:Gomory 2
CPXPARAM_MIP_Cuts_Gomory-Disjunctive-MIRCut:Disjunctive 0
CPXPARAM_MIP_Cuts_Gomory-Disjunctive-MIRCut:MIRCut 0
27
Node Left Objective IInf Best_Integer Best_Bound ItCnt Gap
0 0 0.0000 29 0.0000 11
0+ 0 nan nan 2714.4880 0.0000 nan 100.00%
0+ 0 nan nan 691.3327 0.0000 nan 100.00%
0+ 0 nan nan 26.5663 0.0000 nan 100.00%
0 2 0.0000 29 26.5663 0.0000 11 100.00%
CPXPARAM_MIP_Cuts_Gomory-Disjunctive-MIRCut:Gomory 0
CPXPARAM_MIP_Cuts_Gomory-Disjunctive-MIRCut:Disjunctive 0
CPXPARAM_MIP_Cuts_Gomory-Disjunctive-MIRCut:MIRCut 0
28
Node Left Objective IInf Best_Integer Best_Bound ItCnt Gap
0 0 0.0000 5 0.0000 10
0+ 0 nan nan 3721.0312 0.0000 nan 100.00%
0+ 0 nan nan 1.1875 0.0000 nan 100.00%
0 2 0.0000 5 1.1875 0.0000 10 100.00%
CPXPARAM_MIP_Cuts_Gomory-Disjunctive-MIRCut:Gomory 0
CPXPARAM_MIP_Cuts_Gomory-Disjunctive-MIRCut:Disjunctive 0
CPXPARAM_MIP_Cuts_Gomory-Disjunctive-MIRCut:MIRCut 0
29
Node Left Objective IInf Best_Integer Best_Bound ItCnt Gap
0 0 0.0000 29 0.0000 12
0+ 0 nan nan 4870.7705 0.0000 nan 100.00%
0+ 0 nan nan 1047.8755 0.0000 nan 100.00%
0+ 0 nan nan 31.3132 0.0000 nan 100.00%
0 2 0.0000 29 31.3132 0.0000 12 100.00%
CPXPARAM_MIP_Cuts_Gomory-Disjunctive-MIRCut:Gomory 0
CPXPARAM_MIP_Cuts_Gomory-Disjunctive-MIRCut:Disjunctive 0
CPXPARAM_MIP_Cuts_Gomory-Disjunctive-MIRCut:MIRCut 0
30
Node Left Objective IInf Best_Integer Best_Bound ItCnt Gap
0 0 0.0000 3 0.0000 11
0+ 0 nan nan 1552.3942 0.0000 nan 100.00%
0+ 0 nan nan 1.1875 0.0000 nan 100.00%
0 2 0.0000 3 1.1875 0.0000 11 100.00%
CPXPARAM_MIP_Cuts_Gomory-Disjunctive-MIRCut:Gomory 0
CPXPARAM_MIP_Cuts_Gomory-Disjunctive-MIRCut:Disjunctive 0
CPXPARAM_MIP_Cuts_Gomory-Disjunctive-MIRCut:MIRCut 0
31
Node Left Objective IInf Best_Integer Best_Bound ItCnt Gap
0 0 0.0000 29 0.0000 11
0+ 0 nan nan 4482.0282 0.0000 nan 100.00%
0+ 0 nan nan 1047.8755 0.0000 nan 100.00%
0+ 0 nan nan 273.2809 0.0000 nan 100.00%
0+ 0 nan nan 43.1027 0.0000 nan 100.00%
0 2 0.0000 29 43.1027 0.0000 11 100.00%
CPXPARAM_MIP_Cuts_Gomory-Disjunctive-MIRCut:Gomory 0
CPXPARAM_MIP_Cuts_Gomory-Disjunctive-MIRCut:Disjunctive 0
CPXPARAM_MIP_Cuts_Gomory-Disjunctive-MIRCut:MIRCut 0
32
Node Left Objective IInf Best_Integer Best_Bound ItCnt Gap
0 0 -0.0000 7 -0.0000 10
0+ 0 nan nan 6211.9884 -0.0000 nan 100.00%
0+ 0 nan nan 4.0613 -0.0000 nan 100.00%
0 2 -0.0000 7 4.0613 -0.0000 10 100.00%
CPXPARAM_MIP_Cuts_Gomory-Disjunctive-MIRCut:Gomory 0
CPXPARAM_MIP_Cuts_Gomory-Disjunctive-MIRCut:Disjunctive 0
CPXPARAM_MIP_Cuts_Gomory-Disjunctive-MIRCut:MIRCut 0
33
Node Left Objective IInf Best_Integer Best_Bound ItCnt Gap
0 0 -0.0000 29 -0.0000 11
0+ 0 nan nan 3627.9421 -0.0000 nan 100.00%
0+ 0 nan nan 690.4898 -0.0000 nan 100.00%
0+ 0 nan nan 61.0964 -0.0000 nan 100.00%
0 2 -0.0000 29 61.0964 -0.0000 11 100.00%
CPXPARAM_MIP_Cuts_Gomory-Disjunctive-MIRCut:Gomory 0
CPXPARAM_MIP_Cuts_Gomory-Disjunctive-MIRCut:Disjunctive 0
CPXPARAM_MIP_Cuts_Gomory-Disjunctive-MIRCut:MIRCut 0
34
Node Left Objective IInf Best_Integer Best_Bound ItCnt Gap
0 0 0.0000 7 0.0000 11
0+ 0 nan nan 6689.5944 0.0000 nan 100.00%
0+ 0 nan nan 4.5482 0.0000 nan 100.00%
0+ 0 nan nan 3.3924 0.0000 nan 100.00%
0 2 0.0000 7 3.3924 0.0000 11 100.00%
CPXPARAM_MIP_Cuts_Gomory-Disjunctive-MIRCut:Gomory 0
CPXPARAM_MIP_Cuts_Gomory-Disjunctive-MIRCut:Disjunctive 0
CPXPARAM_MIP_Cuts_Gomory-Disjunctive-MIRCut:MIRCut 0
35
Node Left Objective IInf Best_Integer Best_Bound ItCnt Gap
0 0 -0.0000 29 -0.0000 12
0+ 0 nan nan 3601.7452 -0.0000 nan 100.00%
0+ 0 nan nan 690.4898 -0.0000 nan 100.00%
0+ 0 nan nan 621.7386 -0.0000 nan 100.00%
0+ 0 nan nan 168.7680 -0.0000 nan 100.00%
0 2 -0.0000 29 168.7680 -0.0000 12 100.00%
CPXPARAM_MIP_Cuts_Gomory-Disjunctive-MIRCut:Gomory 0
CPXPARAM_MIP_Cuts_Gomory-Disjunctive-MIRCut:Disjunctive 0
CPXPARAM_MIP_Cuts_Gomory-Disjunctive-MIRCut:MIRCut 0
36
Node Left Objective IInf Best_Integer Best_Bound ItCnt Gap
0 0 0.0000 6 0.0000 10
0+ 0 nan nan 5315.4945 0.0000 nan 100.00%
0+ 0 nan nan 2.2402 0.0000 nan 100.00%
0 2 0.0000 6 2.2402 0.0000 10 100.00%
CPXPARAM_MIP_Cuts_Gomory-Disjunctive-MIRCut:Gomory 0
CPXPARAM_MIP_Cuts_Gomory-Disjunctive-MIRCut:Disjunctive 0
CPXPARAM_MIP_Cuts_Gomory-Disjunctive-MIRCut:MIRCut 0
37
Node Left Objective IInf Best_Integer Best_Bound ItCnt Gap
0 0 0.0000 29 0.0000 12
0+ 0 nan nan 3449.2776 0.0000 nan 100.00%
0+ 0 nan nan 813.3288 0.0000 nan 100.00%
0+ 0 nan nan 97.8305 0.0000 nan 100.00%
0 2 0.0000 29 97.8305 0.0000 12 100.00%
CPXPARAM_MIP_Cuts_Gomory-Disjunctive-MIRCut:Gomory 0
CPXPARAM_MIP_Cuts_Gomory-Disjunctive-MIRCut:Disjunctive 0
CPXPARAM_MIP_Cuts_Gomory-Disjunctive-MIRCut:MIRCut 0
38
Node Left Objective IInf Best_Integer Best_Bound ItCnt Gap
0 0 0.0000 6 0.0000 11
0+ 0 nan nan 4490.8302 0.0000 nan 100.00%
0+ 0 nan nan 5.7845 0.0000 nan 100.00%
0 2 0.0000 6 5.7845 0.0000 11 100.00%
CPXPARAM_MIP_Cuts_Gomory-Disjunctive-MIRCut:Gomory 0
CPXPARAM_MIP_Cuts_Gomory-Disjunctive-MIRCut:Disjunctive 0
CPXPARAM_MIP_Cuts_Gomory-Disjunctive-MIRCut:MIRCut 0
39
Node Left Objective IInf Best_Integer Best_Bound ItCnt Gap
0 0 0.0000 28 0.0000 13
0+ 0 nan nan 3349.5808 0.0000 nan 100.00%
0+ 0 nan nan 706.5416 0.0000 nan 100.00%
0+ 0 nan nan 377.3089 0.0000 nan 100.00%
0+ 0 nan nan 114.8020 0.0000 nan 100.00%
0 2 0.0000 28 114.8020 0.0000 13 100.00%
CPXPARAM_MIP_Cuts_Gomory-Disjunctive-MIRCut:Gomory 0
CPXPARAM_MIP_Cuts_Gomory-Disjunctive-MIRCut:Disjunctive 0
CPXPARAM_MIP_Cuts_Gomory-Disjunctive-MIRCut:MIRCut 0
